p cnf 12 50 
2 -12 7 0
10 1 -11 0
-5 11 3 0
12 9 -2 0
1 -3 -6 0
6 12 -1 0
10 -9 11 0
-1 -3 -2 0
4 2 -8 0
-11 -9 -4 0
9 11 6 0
-11 -12 -8 0
-7 -11 -4 0
-2 -6 10 0
4 -6 -3 0
11 1 3 0
8 4 -9 0
5 -9 7 0
-3 7 5 0
-12 -8 7 0
5 -4 2 0
11 12 3 0
-9 -1 4 0
-4 1 6 0
-11 -8 7 0
-2 -9 -12 0
-5 -1 12 0
4 -3 -10 0
-5 4 9 0
-1 7 10 0
2 -9 -7 0
-11 12 7 0
9 2 -10 0
4 3 -6 0
-12 4 -5 0
-2 -10 -7 0
-12 2 -4 0
-7 5 2 0
-5 8 4 0
-6 7 -5 0
-11 -12 4 0
7 2 12 0
-12 1 -3 0
7 10 -1 0
3 5 -12 0
-6 1 9 0
-3 10 5 0
10 -9 1 0
-3 -12 1 0
7 -11 2 0
